treewidth/data/PaleyGraph_17.gr
p tw 17 68
1 2
1 10
1 12
1 16
1 17
1 6
1 8
1 9
2 10
2 11
2 13
2 17
2 3
2 7
2 9
10 11
10 12
10 14
10 3
10 4
10 8
11 12
11 13
11 15
11 4
11 5
11 9
12 13
12 14
12 16
12 5
12 6
13 14
13 15
13 17
13 6
13 7
14 15
14 16
14 3
14 7
14 8
15 16
15 17
15 4
15 8
15 9
16 17
16 3
16 5
16 9
17 3
17 4
17 6
3 4
3 5
3 7
4 5
4 6
4 8
5 6
5 7
5 9
6 7
6 8
7 8
7 9
8 9
