treewidth/data/PaleyGraph_17.td
c width = 11, time = 0.136618
s td 6 12 17
b 1 2 5 6 7 8 10 11 12 14 15 16 17
b 2 2 5 6 7 8 9 10 11 12 15 16 17
b 3 1 2 6 8 9 10 12 16 17
b 4 2 4 5 6 7 8 10 11 14 15 16 17
b 5 2 3 4 5 7 10 14 16 17
b 6 2 6 7 11 12 13 14 15 17
2 3
1 2
4 5
1 4
1 6
